NAME : XML100_3125_02
DIMENSION : 101
NB_CLUSTERS : 4
CLUSTERING_ALG : KMeans
CLUSTERING_PARAMS : k(3)
CLUSTERS
1 0
2 1 2 12 14 18 21 25 28 32 33 36 38 41 43 45 49 50 52 53 61 62 66 75 76 80 82 83 84 90 91 94 96
3 3 4 5 6 9 11 13 16 19 20 29 31 34 35 37 39 47 51 54 56 57 59 63 64 67 68 70 71 73 74 81 85 86 87 88 89 95 99
4 7 8 10 15 17 22 23 24 26 27 30 40 42 44 46 48 55 58 60 65 69 72 77 78 79 92 93 97 98 100
EOF